(set-logic ALL)
(declare-const s String)
(assert (not (= s "")))
(assert (str.contains s " "))
(assert (not (< (str.len s) 0)))
(assert (not (= (+ 0 (str.indexof s " " 0)) (- 1))))
(assert (not (< (+ 0 (str.indexof s " " 0)) 0)))
(assert (not (< (+ (+ 0 (str.indexof s " " 0)) 1) 0)))
(assert (not (< (str.len s) 0)))
(assert (not (< (str.len (str.substr s (+ (+ 0 (str.indexof s " " 0)) 1) (- (str.len s) (+ (+ 0 (str.indexof s " " 0)) 1)))) 0)))
(assert (not (= (+ 0 (str.indexof (str.substr s (+ (+ 0 (str.indexof s " " 0)) 1) (- (str.len s) (+ (+ 0 (str.indexof s " " 0)) 1))) " " 0)) (- 1))))
(assert (not (< (+ 0 (str.indexof (str.substr s (+ (+ 0 (str.indexof s " " 0)) 1) (- (str.len s) (+ (+ 0 (str.indexof s " " 0)) 1))) " " 0)) 0)))
(assert (not (< (+ (+ 0 (str.indexof (str.substr s (+ (+ 0 (str.indexof s " " 0)) 1) (- (str.len s) (+ (+ 0 (str.indexof s " " 0)) 1))) " " 0)) 1) 0)))
(assert (not (< (str.len (str.substr s (+ (+ 0 (str.indexof s " " 0)) 1) (- (str.len s) (+ (+ 0 (str.indexof s " " 0)) 1)))) 0)))
(assert (not (< (str.len (str.substr (str.substr s (+ (+ 0 (str.indexof s " " 0)) 1) (- (str.len s) (+ (+ 0 (str.indexof s " " 0)) 1))) (+ (+ 0 (str.indexof (str.substr s (+ (+ 0 (str.indexof s " " 0)) 1) (- (str.len s) (+ (+ 0 (str.indexof s " " 0)) 1))) " " 0)) 1) (- (str.len (str.substr s (+ (+ 0 (str.indexof s " " 0)) 1) (- (str.len s) (+ (+ 0 (str.indexof s " " 0)) 1)))) (+ (+ 0 (str.indexof (str.substr s (+ (+ 0 (str.indexof s " " 0)) 1) (- (str.len s) (+ (+ 0 (str.indexof s " " 0)) 1))) " " 0)) 1)))) 0)))
(assert (not (= (+ 0 (str.indexof (str.substr (str.substr s (+ (+ 0 (str.indexof s " " 0)) 1) (- (str.len s) (+ (+ 0 (str.indexof s " " 0)) 1))) (+ (+ 0 (str.indexof (str.substr s (+ (+ 0 (str.indexof s " " 0)) 1) (- (str.len s) (+ (+ 0 (str.indexof s " " 0)) 1))) " " 0)) 1) (- (str.len (str.substr s (+ (+ 0 (str.indexof s " " 0)) 1) (- (str.len s) (+ (+ 0 (str.indexof s " " 0)) 1)))) (+ (+ 0 (str.indexof (str.substr s (+ (+ 0 (str.indexof s " " 0)) 1) (- (str.len s) (+ (+ 0 (str.indexof s " " 0)) 1))) " " 0)) 1))) " " 0)) (- 1))))
(assert (not (< (+ 0 (str.indexof (str.substr (str.substr s (+ (+ 0 (str.indexof s " " 0)) 1) (- (str.len s) (+ (+ 0 (str.indexof s " " 0)) 1))) (+ (+ 0 (str.indexof (str.substr s (+ (+ 0 (str.indexof s " " 0)) 1) (- (str.len s) (+ (+ 0 (str.indexof s " " 0)) 1))) " " 0)) 1) (- (str.len (str.substr s (+ (+ 0 (str.indexof s " " 0)) 1) (- (str.len s) (+ (+ 0 (str.indexof s " " 0)) 1)))) (+ (+ 0 (str.indexof (str.substr s (+ (+ 0 (str.indexof s " " 0)) 1) (- (str.len s) (+ (+ 0 (str.indexof s " " 0)) 1))) " " 0)) 1))) " " 0)) 0)))
(assert (not (< (+ (+ 0 (str.indexof (str.substr (str.substr s (+ (+ 0 (str.indexof s " " 0)) 1) (- (str.len s) (+ (+ 0 (str.indexof s " " 0)) 1))) (+ (+ 0 (str.indexof (str.substr s (+ (+ 0 (str.indexof s " " 0)) 1) (- (str.len s) (+ (+ 0 (str.indexof s " " 0)) 1))) " " 0)) 1) (- (str.len (str.substr s (+ (+ 0 (str.indexof s " " 0)) 1) (- (str.len s) (+ (+ 0 (str.indexof s " " 0)) 1)))) (+ (+ 0 (str.indexof (str.substr s (+ (+ 0 (str.indexof s " " 0)) 1) (- (str.len s) (+ (+ 0 (str.indexof s " " 0)) 1))) " " 0)) 1))) " " 0)) 1) 0)))
(assert (not (< (str.len (str.substr (str.substr s (+ (+ 0 (str.indexof s " " 0)) 1) (- (str.len s) (+ (+ 0 (str.indexof s " " 0)) 1))) (+ (+ 0 (str.indexof (str.substr s (+ (+ 0 (str.indexof s " " 0)) 1) (- (str.len s) (+ (+ 0 (str.indexof s " " 0)) 1))) " " 0)) 1) (- (str.len (str.substr s (+ (+ 0 (str.indexof s " " 0)) 1) (- (str.len s) (+ (+ 0 (str.indexof s " " 0)) 1)))) (+ (+ 0 (str.indexof (str.substr s (+ (+ 0 (str.indexof s " " 0)) 1) (- (str.len s) (+ (+ 0 (str.indexof s " " 0)) 1))) " " 0)) 1)))) 0)))
(assert (< (str.len (str.substr (str.substr (str.substr s (+ (+ 0 (str.indexof s " " 0)) 1) (- (str.len s) (+ (+ 0 (str.indexof s " " 0)) 1))) (+ (+ 0 (str.indexof (str.substr s (+ (+ 0 (str.indexof s " " 0)) 1) (- (str.len s) (+ (+ 0 (str.indexof s " " 0)) 1))) " " 0)) 1) (- (str.len (str.substr s (+ (+ 0 (str.indexof s " " 0)) 1) (- (str.len s) (+ (+ 0 (str.indexof s " " 0)) 1)))) (+ (+ 0 (str.indexof (str.substr s (+ (+ 0 (str.indexof s " " 0)) 1) (- (str.len s) (+ (+ 0 (str.indexof s " " 0)) 1))) " " 0)) 1))) (+ (+ 0 (str.indexof (str.substr (str.substr s (+ (+ 0 (str.indexof s " " 0)) 1) (- (str.len s) (+ (+ 0 (str.indexof s " " 0)) 1))) (+ (+ 0 (str.indexof (str.substr s (+ (+ 0 (str.indexof s " " 0)) 1) (- (str.len s) (+ (+ 0 (str.indexof s " " 0)) 1))) " " 0)) 1) (- (str.len (str.substr s (+ (+ 0 (str.indexof s " " 0)) 1) (- (str.len s) (+ (+ 0 (str.indexof s " " 0)) 1)))) (+ (+ 0 (str.indexof (str.substr s (+ (+ 0 (str.indexof s " " 0)) 1) (- (str.len s) (+ (+ 0 (str.indexof s " " 0)) 1))) " " 0)) 1))) " " 0)) 1) (- (str.len (str.substr (str.substr s (+ (+ 0 (str.indexof s " " 0)) 1) (- (str.len s) (+ (+ 0 (str.indexof s " " 0)) 1))) (+ (+ 0 (str.indexof (str.substr s (+ (+ 0 (str.indexof s " " 0)) 1) (- (str.len s) (+ (+ 0 (str.indexof s " " 0)) 1))) " " 0)) 1) (- (str.len (str.substr s (+ (+ 0 (str.indexof s " " 0)) 1) (- (str.len s) (+ (+ 0 (str.indexof s " " 0)) 1)))) (+ (+ 0 (str.indexof (str.substr s (+ (+ 0 (str.indexof s " " 0)) 1) (- (str.len s) (+ (+ 0 (str.indexof s " " 0)) 1))) " " 0)) 1)))) (+ (+ 0 (str.indexof (str.substr (str.substr s (+ (+ 0 (str.indexof s " " 0)) 1) (- (str.len s) (+ (+ 0 (str.indexof s " " 0)) 1))) (+ (+ 0 (str.indexof (str.substr s (+ (+ 0 (str.indexof s " " 0)) 1) (- (str.len s) (+ (+ 0 (str.indexof s " " 0)) 1))) " " 0)) 1) (- (str.len (str.substr s (+ (+ 0 (str.indexof s " " 0)) 1) (- (str.len s) (+ (+ 0 (str.indexof s " " 0)) 1)))) (+ (+ 0 (str.indexof (str.substr s (+ (+ 0 (str.indexof s " " 0)) 1) (- (str.len s) (+ (+ 0 (str.indexof s " " 0)) 1))) " " 0)) 1))) " " 0)) 1)))) 0))
(check-sat)
(get-value (s))
